language ESSENCE' 1.0
letting lastdx=91
letting cage be [
[27,16,1,15,1,15,2,14,2,13,2],
[16,4,8,4,9,0,0, 0,0, 0,0],
[20,8,3,8,2,0,0, 0,0, 0,0],
[32,14,13,13,13,12,13,11,13,0,0],
[46,6,14,7,14,8,14,8,13,0,0],
[26,5,9,5,10,4,10,0,0, 0,0],
[23,10,9,10,8,10,7,0,0, 0,0],
[23,6,8,6,9,6,10,0,0, 0,0],
[32,4,11,3,11,2,11,2,12,0,0],
[32,10,16,10,15,9,15,8,15,0,0],
[12,1,5,1,4,0,0, 0,0, 0,0],
[11,10,1,0,0, 0,0, 0,0, 0,0],
[20,7,10,7,9,0,0, 0,0, 0,0],
[9,2,14,0,0, 0,0, 0,0, 0,0],
[24,16,16,16,15,0,0, 0,0, 0,0],
[47,13,14,12,14,12,15,11,15,0,0],
[16,1,6,1,7,0,0, 0,0, 0,0],
[39,10,5,10,4,11,4,12,4,0,0],
[1,16,12,0,0, 0,0, 0,0, 0,0],
[9,15,12,0,0, 0,0, 0,0, 0,0],
[42,6,3,7,3,7,2,7,1,8,1],
[39,9,12,9,11,10,11,10,12,0,0],
[26,1,12,1,11,0,0, 0,0, 0,0],
[5,12,1,0,0, 0,0, 0,0, 0,0],
[30,13,5,13,4,13,3,12,3,0,0],
[37,3,15,3,14,3,13,3,12,4,12],
[9,9,16,8,16,0,0, 0,0, 0,0],
[11,14,5,0,0, 0,0, 0,0, 0,0],
[32,13,12,14,12,14,11,0,0, 0,0],
[32,9,1,9,2,9,3,0,0, 0,0],
[41,11,9,12,9,12,8,13,8,14,8],
[28,2,10,3,10,3,9,2,9,0,0],
[11,2,15,0,0, 0,0, 0,0, 0,0],
[22,1,10,1,9,1,8,0,0, 0,0],
[17,14,16,13,16,13,15,0,0, 0,0],
[25,1,2,1,1,2,1,3,1,0,0],
[29,16,3,16,2,15,3,0,0, 0,0],
[51,9,13,10,13,10,14,9,14,11,14],
[26,9,10,10,10,0,0, 0,0, 0,0],
[23,8,10,8,11,0,0, 0,0, 0,0],
[9,3,3,0,0, 0,0, 0,0, 0,0],
[52,16,6,16,5,16,7,16,8,16,9],
[16,5,12,6,12,0,0, 0,0, 0,0],
[7,1,14,0,0, 0,0, 0,0, 0,0],
[5,14,4,14,3,0,0, 0,0, 0,0],
[23,9,9,8,9,8,8,7,8,0,0],
[35,2,8,2,7,2,6,2,5,2,4],
[6,6,2,0,0, 0,0, 0,0, 0,0],
[3,12,7,0,0, 0,0, 0,0, 0,0],
[27,15,15,15,16,0,0, 0,0, 0,0],
[31,11,1,11,2,12,2,11,3,0,0],
[10,3,8,0,0, 0,0, 0,0, 0,0],
[13,10,2,10,3,0,0, 0,0, 0,0],
[6,3,6,0,0, 0,0, 0,0, 0,0],
[27,1,16,1,15,0,0, 0,0, 0,0],
[28,4,7,3,7,0,0, 0,0, 0,0],
[14,4,16,4,15,0,0, 0,0, 0,0],
[15,11,8,0,0, 0,0, 0,0, 0,0],
[8,9,5,0,0, 0,0, 0,0, 0,0],
[15,13,10,0,0, 0,0, 0,0, 0,0],
[10,7,5,0,0, 0,0, 0,0, 0,0],
[9,5,8,0,0, 0,0, 0,0, 0,0],
[13,6,11,5,11,0,0, 0,0, 0,0],
[15,8,12,7,12,7,11,0,0, 0,0],
[39,4,14,4,13,5,13,6,13,7,13],
[22,6,16,6,15,0,0, 0,0, 0,0],
[28,13,1,14,1,0,0, 0,0, 0,0],
[10,14,14,14,15,0,0, 0,0, 0,0],
[44,5,1,6,1,4,1,4,2,4,3],
[22,8,5,8,4,9,4,0,0, 0,0],
[39,5,7,6,7,6,6,6,5,0,0],
[37,12,10,11,10,11,11,12,11,13,11],
[21,15,13,16,13,16,14,15,14,0,0],
[39,4,5,4,4,3,4,3,5,0,0],
[2,1,3,0,0, 0,0, 0,0, 0,0],
[28,1,13,2,13,0,0, 0,0, 0,0],
[37,2,2,2,3,3,2,0,0, 0,0],
[16,2,16,3,16,0,0, 0,0, 0,0],
[20,4,6,5,6,5,5,5,4,0,0],
[31,5,2,5,3,0,0, 0,0, 0,0],
[16,5,14,5,15,5,16,0,0, 0,0],
[15,6,4,7,4,0,0, 0,0, 0,0],
[8,7,15,7,16,0,0, 0,0, 0,0],
[15,9,7,9,8,0,0, 0,0, 0,0],
[42,10,6,11,6,11,5,11,7,0,0],
[11,11,12,12,12,0,0, 0,0, 0,0],
[21,11,16,12,16,0,0, 0,0, 0,0],
[4,13,9,0,0, 0,0, 0,0, 0,0],
[7,14,9,0,0, 0,0, 0,0, 0,0],
[27,14,10,15,10,16,10,0,0, 0,0],
[29,15,7,15,8,15,9,0,0, 0,0],
[14,15,11,16,11,0,0, 0,0, 0,0]
]
